1035 564
840 759
48 339
497 698
535 922
179 770
307 60
209 844
873 157
981 752
3 11
247 731
756 9
253 891
486 1008
837 60
307 620
569 158
950 58
158 971
102 589
1034 911
347 580
263 883
138 131
813 432
962 534
192 33
925 559
118 360
550 571
432 255
502 202
607 927
654 318
1024 794
922 577
457 114
475 825
41 551
635 21
37 521
362 122
1005 457
118 763
146 757
1018 966
869 870
305 380
238 581
